
        $ From http://www.csplib.org/Problems/prob009/data/helmut.pdf
        $ Problem number 130
        $ Sequence length : 25
        language ESSENCE' 1.0
        letting sizemaster be 408
        letting sizes be sequence(2,3,7,13,16,18,20,27,30,33,41,43,46,52,54,57,72,79,84,100,105,108,116,195,213)
        